num_bands         = 4
num_wann          = 4

num_iter          = 500
num_print_cycles  = 50

begin unit_cell_cart
bohr
-5.130000 0.000000 5.130000
 0.000000 5.130000 5.130000
-5.130000 5.130000 0.000000
end unit_cell_cart

begin atoms_frac
Si   0.00   0.00   0.00
Si  -0.25   0.75  -0.25
End atoms_frac

! begin projections
! Si : sp3
! end projections


! BOND CENTERED GAUSSIAN PROJECTIONS
begin projections
f=-0.125,-0.125, 0.375:s
f= 0.375,-0.125,-0.125:s
f=-0.125, 0.375,-0.125:s
f=-0.125,-0.125,-0.125:s
end projections


! begin kpoint_path
! L 0.50000  0.50000 0.5000 G 0.00000  0.00000 0.0000
! G 0.00000  0.00000 0.0000 X 0.50000  0.00000 0.5000
! X 0.50000 -0.50000 0.0000 K 0.37500 -0.37500 0.0000
! K 0.37500 -0.37500 0.0000 G 0.00000  0.00000 0.0000
! end kpoint_path



mp_grid : 4 4 4

begin kpoints
-0.125 -0.125 -0.125
0.125 -0.125 -0.125
0.375 -0.125 -0.125
-0.375 -0.125 -0.125
-0.125 0.125 -0.125
0.125 0.125 -0.125
0.375 0.125 -0.125
-0.375 0.125 -0.125
-0.125 0.375 -0.125
0.125 0.375 -0.125
0.375 0.375 -0.125
-0.375 0.375 -0.125
-0.125 -0.375 -0.125
0.125 -0.375 -0.125
0.375 -0.375 -0.125
-0.375 -0.375 -0.125
-0.125 -0.125 0.125
0.125 -0.125 0.125
0.375 -0.125 0.125
-0.375 -0.125 0.125
-0.125 0.125 0.125
0.125 0.125 0.125
0.375 0.125 0.125
-0.375 0.125 0.125
-0.125 0.375 0.125
0.125 0.375 0.125
0.375 0.375 0.125
-0.375 0.375 0.125
-0.125 -0.375 0.125
0.125 -0.375 0.125
0.375 -0.375 0.125
-0.375 -0.375 0.125
-0.125 -0.125 0.375
0.125 -0.125 0.375
0.375 -0.125 0.375
-0.375 -0.125 0.375
-0.125 0.125 0.375
0.125 0.125 0.375
0.375 0.125 0.375
-0.375 0.125 0.375
-0.125 0.375 0.375
0.125 0.375 0.375
0.375 0.375 0.375
-0.375 0.375 0.375
-0.125 -0.375 0.375
0.125 -0.375 0.375
0.375 -0.375 0.375
-0.375 -0.375 0.375
-0.125 -0.125 -0.375
0.125 -0.125 -0.375
0.375 -0.125 -0.375
-0.375 -0.125 -0.375
-0.125 0.125 -0.375
0.125 0.125 -0.375
0.375 0.125 -0.375
-0.375 0.125 -0.375
-0.125 0.375 -0.375
0.125 0.375 -0.375
0.375 0.375 -0.375
-0.375 0.375 -0.375
-0.125 -0.375 -0.375
0.125 -0.375 -0.375
0.375 -0.375 -0.375
-0.375 -0.375 -0.375
end kpoints
